QPLIB_3713
LGQ
minimize
672 # number of variables
296 # number of constraints
0.0 # default value for linear coefficients in objective
42 # number of non-default linear coefficients in objective
1 1.090016011
2 3.10674202
3 2.475702586
4 1.966733944
5 1.090016011
6 2.019536713
7 3.10674202
8 1.383540955
9 2.087059045
10 3.720443668
11 1.383540955
12 1.794144217
13 3.50653318
14 1.71812596
15 3.834780538
16 2.087059045
17 1.794144217
18 2.239621249
19 2.475702586
20 2.019536713
21 3.720443668
22 3.50653318
23 2.239621249
24 1.098732406
25 1.742557876
26 1.098732406
27 3.606882982
28 1.71812596
29 2.074958698
30 1.966733944
31 2.074958698
32 3.859970515
33 1.742557876
34 3.859970515
35 3.951460459
36 3.834780538
37 3.606882982
38 2.524064089
39 2.524064089
40 3.982701487
41 3.951460459
42 3.982701487
0.0 # objective constant
126 # number of quadratic terms in all constraints
255 1651076196 -923848415 332.0
255 1651076196 -923848415 -332.0
255 1651076196 -923848415 2.0
256 1932407863 32509 926.0
256 1932407863 32509 -926.0
256 1932407863 32509 2.0
257 1868767344 385 1044.0
257 1868767344 385 -1044.0
257 1868767344 385 2.0
258 540090479 1 282.0
258 540090479 1 -282.0
258 540090479 1 2.0
259 50 50 332.0
259 50 50 -332.0
259 50 50 2.0
260 1 1 530.0
260 1 1 -530.0
260 1 1 2.0
261 1651076121 8352241 926.0
261 1651076121 8352241 -926.0
261 1651076121 8352241 2.0
262 1684959076 1 912.0
262 1684959076 1 -912.0
262 1684959076 1 2.0
263 1651076196 50 1052.0
263 1651076196 50 -1052.0
263 1651076196 50 2.0
264 1932407863 1 304.0
264 1932407863 1 -304.0
264 1932407863 1 2.0
265 1868767344 1651076121 912.0
265 1868767344 1651076121 -912.0
265 1868767344 1651076121 2.0
266 1684959076 540090479 768.0
266 1684959076 540090479 -768.0
266 1684959076 540090479 2.0
267 1651076196 50 882.0
267 1651076196 50 -882.0
267 1651076196 50 2.0
268 1932407863 1 618.0
268 1932407863 1 -618.0
268 1932407863 1 2.0
269 1868767344 8352241 466.0
269 1868767344 8352241 -466.0
269 1868767344 8352241 2.0
270 540090479 1 1052.0
270 540090479 1 -1052.0
270 540090479 1 2.0
271 50 -923831758 768.0
271 50 -923831758 -768.0
271 50 -923831758 2.0
272 32509 1 406.0
272 32509 1 -406.0
272 32509 1 2.0
273 1651076121 481 1044.0
273 1651076121 481 -1044.0
273 1651076121 481 2.0
274 1684959076 1 530.0
274 1684959076 1 -530.0
274 1684959076 1 2.0
275 1651076196 50 304.0
275 1651076196 50 -304.0
275 1651076196 50 2.0
276 1932407863 1 882.0
276 1932407863 1 -882.0
276 1932407863 1 2.0
277 1868767344 1651076121 406.0
277 1868767344 1651076121 -406.0
277 1868767344 1651076121 2.0
278 1681157988 540090479 568.0
278 1681157988 540090479 -568.0
278 1681157988 540090479 2.0
279 1651076196 -923831758 852.0
279 1651076196 -923831758 -852.0
279 1651076196 -923831758 2.0
280 1932407863 32509 568.0
280 1932407863 32509 -568.0
280 1932407863 32509 2.0
281 1868767344 481 218.0
281 1868767344 481 -218.0
281 1868767344 481 2.0
282 540090421 1 618.0
282 540090421 1 -618.0
282 540090421 1 2.0
283 2097 50 868.0
283 2097 50 -868.0
283 2097 50 2.0
284 1 1 282.0
284 1 1 -282.0
284 1 1 2.0
285 1651076121 8371089 868.0
285 1651076121 8371089 -868.0
285 1651076121 8371089 2.0
286 1681157988 1 806.0
286 1681157988 1 -806.0
286 1681157988 1 2.0
287 1651076196 50 852.0
287 1651076196 50 -852.0
287 1651076196 50 2.0
288 1932407863 1 806.0
288 1932407863 1 -806.0
288 1932407863 1 2.0
289 1868767344 1651076121 302.0
289 1868767344 1651076121 -302.0
289 1868767344 1651076121 2.0
290 1684959076 540090421 466.0
290 1684959076 540090421 -466.0
290 1684959076 540090421 2.0
291 1651076196 2097 218.0
291 1651076196 2097 -218.0
291 1651076196 2097 2.0
292 1932407863 1 734.0
292 1932407863 1 -734.0
292 1932407863 1 2.0
293 1868767344 8371089 734.0
293 1868767344 8371089 -734.0
293 1868767344 8371089 2.0
294 540090479 1 764.0
294 540090479 1 -764.0
294 540090479 1 2.0
295 50 50 302.0
295 50 50 -302.0
295 50 50 2.0
296 1 1 764.0
296 1 1 -764.0
296 1 1 2.0
2310 # number of linear terms in all constraints
1 43 -1.0
1 44 -1.0
1 45 -1.0
1 46 -1.0
1 47 1.0
1 48 1.0
1 49 1.0
1 50 1.0
2 51 -1.0
2 52 -1.0
2 53 -1.0
2 54 -1.0
2 55 1.0
2 56 1.0
2 57 1.0
2 58 1.0
3 59 -1.0
3 60 -1.0
3 61 -1.0
3 62 -1.0
3 63 1.0
3 64 1.0
3 65 1.0
3 66 1.0
4 67 -1.0
4 68 -1.0
4 69 -1.0
4 70 -1.0
4 71 1.0
4 72 1.0
4 73 1.0
4 74 1.0
5 75 -1.0
5 76 -1.0
5 77 -1.0
5 78 -1.0
5 79 1.0
5 80 1.0
5 81 1.0
5 82 1.0
6 83 -1.0
6 84 -1.0
6 85 -1.0
6 86 -1.0
6 87 1.0
6 88 1.0
6 89 1.0
6 90 1.0
7 91 -1.0
7 92 -1.0
7 93 -1.0
7 94 -1.0
7 95 1.0
7 96 1.0
7 97 1.0
7 98 1.0
8 99 -1.0
8 100 -1.0
8 101 -1.0
8 102 -1.0
8 103 1.0
8 104 1.0
8 105 1.0
8 106 1.0
9 107 -1.0
9 108 -1.0
9 109 -1.0
9 110 -1.0
9 111 1.0
9 112 1.0
9 113 1.0
9 114 1.0
10 115 -1.0
10 116 -1.0
10 117 -1.0
10 118 -1.0
10 119 1.0
10 120 1.0
10 121 1.0
10 122 1.0
11 123 -1.0
11 124 -1.0
11 125 -1.0
11 126 -1.0
11 127 1.0
11 128 1.0
11 129 1.0
11 130 1.0
12 131 -1.0
12 132 -1.0
12 133 -1.0
12 134 -1.0
12 135 1.0
12 136 1.0
12 137 1.0
12 138 1.0
13 139 -1.0
13 140 -1.0
13 141 -1.0
13 142 -1.0
13 143 1.0
13 144 1.0
13 145 1.0
13 146 1.0
14 43 1.0
14 47 -1.0
14 147 -1.0
14 148 1.0
15 51 1.0
15 55 -1.0
15 149 -1.0
15 150 1.0
16 59 1.0
16 63 -1.0
16 151 -1.0
16 152 1.0
17 67 1.0
17 71 -1.0
17 153 -1.0
17 154 1.0
18 75 1.0
18 79 -1.0
18 155 -1.0
18 156 1.0
19 83 1.0
19 87 -1.0
19 157 -1.0
19 158 1.0
20 91 1.0
20 95 -1.0
20 159 -1.0
20 160 1.0
21 99 1.0
21 103 -1.0
21 161 -1.0
21 162 1.0
22 107 1.0
22 111 -1.0
22 163 -1.0
22 164 1.0
23 115 1.0
23 119 -1.0
23 165 -1.0
23 166 1.0
24 123 1.0
24 127 -1.0
24 167 -1.0
24 168 1.0
25 131 1.0
25 135 -1.0
25 169 -1.0
25 170 1.0
26 139 1.0
26 143 -1.0
26 171 -1.0
26 172 1.0
27 44 1.0
27 48 -1.0
27 173 -1.0
27 174 -1.0
27 175 -1.0
27 176 1.0
27 177 1.0
27 178 1.0
28 52 1.0
28 56 -1.0
28 179 -1.0
28 180 -1.0
28 181 -1.0
28 182 1.0
28 183 1.0
28 184 1.0
29 60 1.0
29 64 -1.0
29 185 -1.0
29 186 -1.0
29 187 -1.0
29 188 1.0
29 189 1.0
29 190 1.0
30 68 1.0
30 72 -1.0
30 191 -1.0
30 192 -1.0
30 193 -1.0
30 194 1.0
30 195 1.0
30 196 1.0
31 76 1.0
31 80 -1.0
31 197 -1.0
31 198 -1.0
31 199 -1.0
31 200 1.0
31 201 1.0
31 202 1.0
32 84 1.0
32 88 -1.0
32 203 -1.0
32 204 -1.0
32 205 -1.0
32 206 1.0
32 207 1.0
32 208 1.0
33 92 1.0
33 96 -1.0
33 209 -1.0
33 210 -1.0
33 211 -1.0
33 212 1.0
33 213 1.0
33 214 1.0
34 100 1.0
34 104 -1.0
34 215 -1.0
34 216 -1.0
34 217 -1.0
34 218 1.0
34 219 1.0
34 220 1.0
35 108 1.0
35 112 -1.0
35 221 -1.0
35 222 -1.0
35 223 -1.0
35 224 1.0
35 225 1.0
35 226 1.0
36 116 1.0
36 120 -1.0
36 227 -1.0
36 228 -1.0
36 229 -1.0
36 230 1.0
36 231 1.0
36 232 1.0
37 124 1.0
37 128 -1.0
37 233 -1.0
37 234 -1.0
37 235 -1.0
37 236 1.0
37 237 1.0
37 238 1.0
38 132 1.0
38 136 -1.0
38 239 -1.0
38 240 -1.0
38 241 -1.0
38 242 1.0
38 243 1.0
38 244 1.0
39 140 1.0
39 144 -1.0
39 245 -1.0
39 246 -1.0
39 247 -1.0
39 248 1.0
39 249 1.0
39 250 1.0
40 173 1.0
40 176 -1.0
40 251 -1.0
40 252 -1.0
40 253 -1.0
40 254 -1.0
40 255 1.0
40 256 1.0
40 257 1.0
40 258 1.0
41 179 1.0
41 182 -1.0
41 259 -1.0
41 260 -1.0
41 261 -1.0
41 262 -1.0
41 263 1.0
41 264 1.0
41 265 1.0
41 266 1.0
42 185 1.0
42 188 -1.0
42 267 -1.0
42 268 -1.0
42 269 -1.0
42 270 -1.0
42 271 1.0
42 272 1.0
42 273 1.0
42 274 1.0
43 191 1.0
43 194 -1.0
43 275 -1.0
43 276 -1.0
43 277 -1.0
43 278 -1.0
43 279 1.0
43 280 1.0
43 281 1.0
43 282 1.0
44 197 1.0
44 200 -1.0
44 283 -1.0
44 284 -1.0
44 285 -1.0
44 286 -1.0
44 287 1.0
44 288 1.0
44 289 1.0
44 290 1.0
45 203 1.0
45 206 -1.0
45 291 -1.0
45 292 -1.0
45 293 -1.0
45 294 -1.0
45 295 1.0
45 296 1.0
45 297 1.0
45 298 1.0
46 209 1.0
46 212 -1.0
46 299 -1.0
46 300 -1.0
46 301 -1.0
46 302 -1.0
46 303 1.0
46 304 1.0
46 305 1.0
46 306 1.0
47 215 1.0
47 218 -1.0
47 307 -1.0
47 308 -1.0
47 309 -1.0
47 310 -1.0
47 311 1.0
47 312 1.0
47 313 1.0
47 314 1.0
48 221 1.0
48 224 -1.0
48 315 -1.0
48 316 -1.0
48 317 -1.0
48 318 -1.0
48 319 1.0
48 320 1.0
48 321 1.0
48 322 1.0
49 227 1.0
49 230 -1.0
49 323 -1.0
49 324 -1.0
49 325 -1.0
49 326 -1.0
49 327 1.0
49 328 1.0
49 329 1.0
49 330 1.0
50 233 1.0
50 236 -1.0
50 331 -1.0
50 332 -1.0
50 333 -1.0
50 334 -1.0
50 335 1.0
50 336 1.0
50 337 1.0
50 338 1.0
51 239 1.0
51 242 -1.0
51 339 -1.0
51 340 -1.0
51 341 -1.0
51 342 -1.0
51 343 1.0
51 344 1.0
51 345 1.0
51 346 1.0
52 245 1.0
52 248 -1.0
52 347 -1.0
52 348 -1.0
52 349 -1.0
52 350 -1.0
52 351 1.0
52 352 1.0
52 353 1.0
52 354 1.0
53 174 1.0
53 177 -1.0
53 251 1.0
53 255 -1.0
53 355 -1.0
53 356 1.0
54 180 1.0
54 183 -1.0
54 259 1.0
54 263 -1.0
54 357 -1.0
54 358 1.0
55 186 1.0
55 189 -1.0
55 267 1.0
55 271 -1.0
55 359 -1.0
55 360 1.0
56 192 1.0
56 195 -1.0
56 275 1.0
56 279 -1.0
56 361 -1.0
56 362 1.0
57 198 1.0
57 201 -1.0
57 283 1.0
57 287 -1.0
57 363 -1.0
57 364 1.0
58 204 1.0
58 207 -1.0
58 291 1.0
58 295 -1.0
58 365 -1.0
58 366 1.0
59 210 1.0
59 213 -1.0
59 299 1.0
59 303 -1.0
59 367 -1.0
59 368 1.0
60 216 1.0
60 219 -1.0
60 307 1.0
60 311 -1.0
60 369 -1.0
60 370 1.0
61 222 1.0
61 225 -1.0
61 315 1.0
61 319 -1.0
61 371 -1.0
61 372 1.0
62 228 1.0
62 231 -1.0
62 323 1.0
62 327 -1.0
62 373 -1.0
62 374 1.0
63 234 1.0
63 237 -1.0
63 331 1.0
63 335 -1.0
63 375 -1.0
63 376 1.0
64 240 1.0
64 243 -1.0
64 339 1.0
64 343 -1.0
64 377 -1.0
64 378 1.0
65 246 1.0
65 249 -1.0
65 347 1.0
65 351 -1.0
65 379 -1.0
65 380 1.0
66 45 1.0
66 49 -1.0
66 147 1.0
66 148 -1.0
66 175 1.0
66 178 -1.0
66 252 1.0
66 256 -1.0
66 355 1.0
66 356 -1.0
66 381 -1.0
66 382 -1.0
66 383 1.0
66 384 1.0
67 53 1.0
67 57 -1.0
67 149 1.0
67 150 -1.0
67 181 1.0
67 184 -1.0
67 260 1.0
67 264 -1.0
67 357 1.0
67 358 -1.0
67 385 -1.0
67 386 -1.0
67 387 1.0
67 388 1.0
68 61 1.0
68 65 -1.0
68 151 1.0
68 152 -1.0
68 187 1.0
68 190 -1.0
68 268 1.0
68 272 -1.0
68 359 1.0
68 360 -1.0
68 389 -1.0
68 390 -1.0
68 391 1.0
68 392 1.0
69 69 1.0
69 73 -1.0
69 153 1.0
69 154 -1.0
69 193 1.0
69 196 -1.0
69 276 1.0
69 280 -1.0
69 361 1.0
69 362 -1.0
69 393 -1.0
69 394 -1.0
69 395 1.0
69 396 1.0
70 77 1.0
70 81 -1.0
70 155 1.0
70 156 -1.0
70 199 1.0
70 202 -1.0
70 284 1.0
70 288 -1.0
70 363 1.0
70 364 -1.0
70 397 -1.0
70 398 -1.0
70 399 1.0
70 400 1.0
71 85 1.0
71 89 -1.0
71 157 1.0
71 158 -1.0
71 205 1.0
71 208 -1.0
71 292 1.0
71 296 -1.0
71 365 1.0
71 366 -1.0
71 401 -1.0
71 402 -1.0
71 403 1.0
71 404 1.0
72 93 1.0
72 97 -1.0
72 159 1.0
72 160 -1.0
72 211 1.0
72 214 -1.0
72 300 1.0
72 304 -1.0
72 367 1.0
72 368 -1.0
72 405 -1.0
72 406 -1.0
72 407 1.0
72 408 1.0
73 101 1.0
73 105 -1.0
73 161 1.0
73 162 -1.0
73 217 1.0
73 220 -1.0
73 308 1.0
73 312 -1.0
73 369 1.0
73 370 -1.0
73 409 -1.0
73 410 -1.0
73 411 1.0
73 412 1.0
74 109 1.0
74 113 -1.0
74 163 1.0
74 164 -1.0
74 223 1.0
74 226 -1.0
74 316 1.0
74 320 -1.0
74 371 1.0
74 372 -1.0
74 413 -1.0
74 414 -1.0
74 415 1.0
74 416 1.0
75 117 1.0
75 121 -1.0
75 165 1.0
75 166 -1.0
75 229 1.0
75 232 -1.0
75 324 1.0
75 328 -1.0
75 373 1.0
75 374 -1.0
75 417 -1.0
75 418 -1.0
75 419 1.0
75 420 1.0
76 125 1.0
76 129 -1.0
76 167 1.0
76 168 -1.0
76 235 1.0
76 238 -1.0
76 332 1.0
76 336 -1.0
76 375 1.0
76 376 -1.0
76 421 -1.0
76 422 -1.0
76 423 1.0
76 424 1.0
77 133 1.0
77 137 -1.0
77 169 1.0
77 170 -1.0
77 241 1.0
77 244 -1.0
77 340 1.0
77 344 -1.0
77 377 1.0
77 378 -1.0
77 425 -1.0
77 426 -1.0
77 427 1.0
77 428 1.0
78 141 1.0
78 145 -1.0
78 171 1.0
78 172 -1.0
78 247 1.0
78 250 -1.0
78 348 1.0
78 352 -1.0
78 379 1.0
78 380 -1.0
78 429 -1.0
78 430 -1.0
78 431 1.0
78 432 1.0
79 381 1.0
79 383 -1.0
79 433 -1.0
79 434 1.0
80 385 1.0
80 387 -1.0
80 435 -1.0
80 436 1.0
81 389 1.0
81 391 -1.0
81 437 -1.0
81 438 1.0
82 393 1.0
82 395 -1.0
82 439 -1.0
82 440 1.0
83 397 1.0
83 399 -1.0
83 441 -1.0
83 442 1.0
84 401 1.0
84 403 -1.0
84 443 -1.0
84 444 1.0
85 405 1.0
85 407 -1.0
85 445 -1.0
85 446 1.0
86 409 1.0
86 411 -1.0
86 447 -1.0
86 448 1.0
87 413 1.0
87 415 -1.0
87 449 -1.0
87 450 1.0
88 417 1.0
88 419 -1.0
88 451 -1.0
88 452 1.0
89 421 1.0
89 423 -1.0
89 453 -1.0
89 454 1.0
90 425 1.0
90 427 -1.0
90 455 -1.0
90 456 1.0
91 429 1.0
91 431 -1.0
91 457 -1.0
91 458 1.0
92 253 1.0
92 257 -1.0
92 459 -1.0
92 460 1.0
93 261 1.0
93 265 -1.0
93 461 -1.0
93 462 1.0
94 269 1.0
94 273 -1.0
94 463 -1.0
94 464 1.0
95 277 1.0
95 281 -1.0
95 465 -1.0
95 466 1.0
96 285 1.0
96 289 -1.0
96 467 -1.0
96 468 1.0
97 293 1.0
97 297 -1.0
97 469 -1.0
97 470 1.0
98 301 1.0
98 305 -1.0
98 471 -1.0
98 472 1.0
99 309 1.0
99 313 -1.0
99 473 -1.0
99 474 1.0
100 317 1.0
100 321 -1.0
100 475 -1.0
100 476 1.0
101 325 1.0
101 329 -1.0
101 477 -1.0
101 478 1.0
102 333 1.0
102 337 -1.0
102 479 -1.0
102 480 1.0
103 341 1.0
103 345 -1.0
103 481 -1.0
103 482 1.0
104 349 1.0
104 353 -1.0
104 483 -1.0
104 484 1.0
105 46 1.0
105 50 -1.0
105 459 1.0
105 460 -1.0
105 485 -1.0
105 486 1.0
106 54 1.0
106 58 -1.0
106 461 1.0
106 462 -1.0
106 487 -1.0
106 488 1.0
107 62 1.0
107 66 -1.0
107 463 1.0
107 464 -1.0
107 489 -1.0
107 490 1.0
108 70 1.0
108 74 -1.0
108 465 1.0
108 466 -1.0
108 491 -1.0
108 492 1.0
109 78 1.0
109 82 -1.0
109 467 1.0
109 468 -1.0
109 493 -1.0
109 494 1.0
110 86 1.0
110 90 -1.0
110 469 1.0
110 470 -1.0
110 495 -1.0
110 496 1.0
111 94 1.0
111 98 -1.0
111 471 1.0
111 472 -1.0
111 497 -1.0
111 498 1.0
112 102 1.0
112 106 -1.0
112 473 1.0
112 474 -1.0
112 499 -1.0
112 500 1.0
113 110 1.0
113 114 -1.0
113 475 1.0
113 476 -1.0
113 501 -1.0
113 502 1.0
114 118 1.0
114 122 -1.0
114 477 1.0
114 478 -1.0
114 503 -1.0
114 504 1.0
115 126 1.0
115 130 -1.0
115 479 1.0
115 480 -1.0
115 505 -1.0
115 506 1.0
116 134 1.0
116 138 -1.0
116 481 1.0
116 482 -1.0
116 507 -1.0
116 508 1.0
117 142 1.0
117 146 -1.0
117 483 1.0
117 484 -1.0
117 509 -1.0
117 510 1.0
118 382 1.0
118 384 -1.0
118 485 1.0
118 486 -1.0
118 511 -1.0
118 512 1.0
119 386 1.0
119 388 -1.0
119 487 1.0
119 488 -1.0
119 513 -1.0
119 514 1.0
120 390 1.0
120 392 -1.0
120 489 1.0
120 490 -1.0
120 515 -1.0
120 516 1.0
121 394 1.0
121 396 -1.0
121 491 1.0
121 492 -1.0
121 517 -1.0
121 518 1.0
122 398 1.0
122 400 -1.0
122 493 1.0
122 494 -1.0
122 519 -1.0
122 520 1.0
123 402 1.0
123 404 -1.0
123 495 1.0
123 496 -1.0
123 521 -1.0
123 522 1.0
124 406 1.0
124 408 -1.0
124 497 1.0
124 498 -1.0
124 523 -1.0
124 524 1.0
125 410 1.0
125 412 -1.0
125 499 1.0
125 500 -1.0
125 525 -1.0
125 526 1.0
126 414 1.0
126 416 -1.0
126 501 1.0
126 502 -1.0
126 527 -1.0
126 528 1.0
127 418 1.0
127 420 -1.0
127 503 1.0
127 504 -1.0
127 529 -1.0
127 530 1.0
128 422 1.0
128 424 -1.0
128 505 1.0
128 506 -1.0
128 531 -1.0
128 532 1.0
129 426 1.0
129 428 -1.0
129 507 1.0
129 508 -1.0
129 533 -1.0
129 534 1.0
130 430 1.0
130 432 -1.0
130 509 1.0
130 510 -1.0
130 535 -1.0
130 536 1.0
131 254 1.0
131 258 -1.0
131 433 1.0
131 434 -1.0
131 537 -1.0
131 538 1.0
132 262 1.0
132 266 -1.0
132 435 1.0
132 436 -1.0
132 539 -1.0
132 540 1.0
133 270 1.0
133 274 -1.0
133 437 1.0
133 438 -1.0
133 541 -1.0
133 542 1.0
134 278 1.0
134 282 -1.0
134 439 1.0
134 440 -1.0
134 543 -1.0
134 544 1.0
135 286 1.0
135 290 -1.0
135 441 1.0
135 442 -1.0
135 545 -1.0
135 546 1.0
136 294 1.0
136 298 -1.0
136 443 1.0
136 444 -1.0
136 547 -1.0
136 548 1.0
137 302 1.0
137 306 -1.0
137 445 1.0
137 446 -1.0
137 549 -1.0
137 550 1.0
138 310 1.0
138 314 -1.0
138 447 1.0
138 448 -1.0
138 551 -1.0
138 552 1.0
139 318 1.0
139 322 -1.0
139 449 1.0
139 450 -1.0
139 553 -1.0
139 554 1.0
140 326 1.0
140 330 -1.0
140 451 1.0
140 452 -1.0
140 555 -1.0
140 556 1.0
141 334 1.0
141 338 -1.0
141 453 1.0
141 454 -1.0
141 557 -1.0
141 558 1.0
142 342 1.0
142 346 -1.0
142 455 1.0
142 456 -1.0
142 559 -1.0
142 560 1.0
143 350 1.0
143 354 -1.0
143 457 1.0
143 458 -1.0
143 561 -1.0
143 562 1.0
144 537 1.0
144 538 -1.0
144 563 -1.0
144 564 1.0
145 539 1.0
145 540 -1.0
145 565 -1.0
145 566 1.0
146 541 1.0
146 542 -1.0
146 567 -1.0
146 568 1.0
147 543 1.0
147 544 -1.0
147 569 -1.0
147 570 1.0
148 545 1.0
148 546 -1.0
148 571 -1.0
148 572 1.0
149 547 1.0
149 548 -1.0
149 573 -1.0
149 574 1.0
150 549 1.0
150 550 -1.0
150 575 -1.0
150 576 1.0
151 551 1.0
151 552 -1.0
151 577 -1.0
151 578 1.0
152 553 1.0
152 554 -1.0
152 579 -1.0
152 580 1.0
153 555 1.0
153 556 -1.0
153 581 -1.0
153 582 1.0
154 557 1.0
154 558 -1.0
154 583 -1.0
154 584 1.0
155 559 1.0
155 560 -1.0
155 585 -1.0
155 586 1.0
156 561 1.0
156 562 -1.0
156 587 -1.0
156 588 1.0
157 511 1.0
157 512 -1.0
157 563 1.0
157 564 -1.0
158 513 1.0
158 514 -1.0
158 565 1.0
158 566 -1.0
159 515 1.0
159 516 -1.0
159 567 1.0
159 568 -1.0
160 517 1.0
160 518 -1.0
160 569 1.0
160 570 -1.0
161 519 1.0
161 520 -1.0
161 571 1.0
161 572 -1.0
162 521 1.0
162 522 -1.0
162 573 1.0
162 574 -1.0
163 523 1.0
163 524 -1.0
163 575 1.0
163 576 -1.0
164 525 1.0
164 526 -1.0
164 577 1.0
164 578 -1.0
165 527 1.0
165 528 -1.0
165 579 1.0
165 580 -1.0
166 529 1.0
166 530 -1.0
166 581 1.0
166 582 -1.0
167 531 1.0
167 532 -1.0
167 583 1.0
167 584 -1.0
168 533 1.0
168 534 -1.0
168 585 1.0
168 586 -1.0
169 535 1.0
169 536 -1.0
169 587 1.0
169 588 -1.0
170 43 -1.0
170 51 -1.0
170 59 -1.0
170 67 -1.0
170 75 -1.0
170 83 -1.0
170 91 -1.0
170 99 -1.0
170 107 -1.0
170 115 -1.0
170 123 -1.0
170 131 -1.0
170 139 -1.0
170 589 1.0
171 44 -1.0
171 52 -1.0
171 60 -1.0
171 68 -1.0
171 76 -1.0
171 84 -1.0
171 92 -1.0
171 100 -1.0
171 108 -1.0
171 116 -1.0
171 124 -1.0
171 132 -1.0
171 140 -1.0
171 590 1.0
172 45 -1.0
172 53 -1.0
172 61 -1.0
172 69 -1.0
172 77 -1.0
172 85 -1.0
172 93 -1.0
172 101 -1.0
172 109 -1.0
172 117 -1.0
172 125 -1.0
172 133 -1.0
172 141 -1.0
172 591 1.0
173 46 -1.0
173 54 -1.0
173 62 -1.0
173 70 -1.0
173 78 -1.0
173 86 -1.0
173 94 -1.0
173 102 -1.0
173 110 -1.0
173 118 -1.0
173 126 -1.0
173 134 -1.0
173 142 -1.0
173 592 1.0
174 47 -1.0
174 55 -1.0
174 63 -1.0
174 71 -1.0
174 79 -1.0
174 87 -1.0
174 95 -1.0
174 103 -1.0
174 111 -1.0
174 119 -1.0
174 127 -1.0
174 135 -1.0
174 143 -1.0
174 593 1.0
175 147 -1.0
175 149 -1.0
175 151 -1.0
175 153 -1.0
175 155 -1.0
175 157 -1.0
175 159 -1.0
175 161 -1.0
175 163 -1.0
175 165 -1.0
175 167 -1.0
175 169 -1.0
175 171 -1.0
175 594 1.0
176 48 -1.0
176 56 -1.0
176 64 -1.0
176 72 -1.0
176 80 -1.0
176 88 -1.0
176 96 -1.0
176 104 -1.0
176 112 -1.0
176 120 -1.0
176 128 -1.0
176 136 -1.0
176 144 -1.0
176 595 1.0
177 173 -1.0
177 179 -1.0
177 185 -1.0
177 191 -1.0
177 197 -1.0
177 203 -1.0
177 209 -1.0
177 215 -1.0
177 221 -1.0
177 227 -1.0
177 233 -1.0
177 239 -1.0
177 245 -1.0
177 596 1.0
178 174 -1.0
178 180 -1.0
178 186 -1.0
178 192 -1.0
178 198 -1.0
178 204 -1.0
178 210 -1.0
178 216 -1.0
178 222 -1.0
178 228 -1.0
178 234 -1.0
178 240 -1.0
178 246 -1.0
178 597 1.0
179 175 -1.0
179 181 -1.0
179 187 -1.0
179 193 -1.0
179 199 -1.0
179 205 -1.0
179 211 -1.0
179 217 -1.0
179 223 -1.0
179 229 -1.0
179 235 -1.0
179 241 -1.0
179 247 -1.0
179 598 1.0
180 176 -1.0
180 182 -1.0
180 188 -1.0
180 194 -1.0
180 200 -1.0
180 206 -1.0
180 212 -1.0
180 218 -1.0
180 224 -1.0
180 230 -1.0
180 236 -1.0
180 242 -1.0
180 248 -1.0
180 599 1.0
181 251 -1.0
181 259 -1.0
181 267 -1.0
181 275 -1.0
181 283 -1.0
181 291 -1.0
181 299 -1.0
181 307 -1.0
181 315 -1.0
181 323 -1.0
181 331 -1.0
181 339 -1.0
181 347 -1.0
181 600 1.0
182 252 -1.0
182 260 -1.0
182 268 -1.0
182 276 -1.0
182 284 -1.0
182 292 -1.0
182 300 -1.0
182 308 -1.0
182 316 -1.0
182 324 -1.0
182 332 -1.0
182 340 -1.0
182 348 -1.0
182 601 1.0
183 253 -1.0
183 261 -1.0
183 269 -1.0
183 277 -1.0
183 285 -1.0
183 293 -1.0
183 301 -1.0
183 309 -1.0
183 317 -1.0
183 325 -1.0
183 333 -1.0
183 341 -1.0
183 349 -1.0
183 602 1.0
184 254 -1.0
184 262 -1.0
184 270 -1.0
184 278 -1.0
184 286 -1.0
184 294 -1.0
184 302 -1.0
184 310 -1.0
184 318 -1.0
184 326 -1.0
184 334 -1.0
184 342 -1.0
184 350 -1.0
184 603 1.0
185 177 -1.0
185 183 -1.0
185 189 -1.0
185 195 -1.0
185 201 -1.0
185 207 -1.0
185 213 -1.0
185 219 -1.0
185 225 -1.0
185 231 -1.0
185 237 -1.0
185 243 -1.0
185 249 -1.0
185 604 1.0
186 255 -1.0
186 263 -1.0
186 271 -1.0
186 279 -1.0
186 287 -1.0
186 295 -1.0
186 303 -1.0
186 311 -1.0
186 319 -1.0
186 327 -1.0
186 335 -1.0
186 343 -1.0
186 351 -1.0
186 605 1.0
187 355 -1.0
187 357 -1.0
187 359 -1.0
187 361 -1.0
187 363 -1.0
187 365 -1.0
187 367 -1.0
187 369 -1.0
187 371 -1.0
187 373 -1.0
187 375 -1.0
187 377 -1.0
187 379 -1.0
187 606 1.0
188 49 -1.0
188 57 -1.0
188 65 -1.0
188 73 -1.0
188 81 -1.0
188 89 -1.0
188 97 -1.0
188 105 -1.0
188 113 -1.0
188 121 -1.0
188 129 -1.0
188 137 -1.0
188 145 -1.0
188 607 1.0
189 148 -1.0
189 150 -1.0
189 152 -1.0
189 154 -1.0
189 156 -1.0
189 158 -1.0
189 160 -1.0
189 162 -1.0
189 164 -1.0
189 166 -1.0
189 168 -1.0
189 170 -1.0
189 172 -1.0
189 608 1.0
190 178 -1.0
190 184 -1.0
190 190 -1.0
190 196 -1.0
190 202 -1.0
190 208 -1.0
190 214 -1.0
190 220 -1.0
190 226 -1.0
190 232 -1.0
190 238 -1.0
190 244 -1.0
190 250 -1.0
190 609 1.0
191 256 -1.0
191 264 -1.0
191 272 -1.0
191 280 -1.0
191 288 -1.0
191 296 -1.0
191 304 -1.0
191 312 -1.0
191 320 -1.0
191 328 -1.0
191 336 -1.0
191 344 -1.0
191 352 -1.0
191 610 1.0
192 356 -1.0
192 358 -1.0
192 360 -1.0
192 362 -1.0
192 364 -1.0
192 366 -1.0
192 368 -1.0
192 370 -1.0
192 372 -1.0
192 374 -1.0
192 376 -1.0
192 378 -1.0
192 380 -1.0
192 611 1.0
193 381 -1.0
193 385 -1.0
193 389 -1.0
193 393 -1.0
193 397 -1.0
193 401 -1.0
193 405 -1.0
193 409 -1.0
193 413 -1.0
193 417 -1.0
193 421 -1.0
193 425 -1.0
193 429 -1.0
193 612 1.0
194 382 -1.0
194 386 -1.0
194 390 -1.0
194 394 -1.0
194 398 -1.0
194 402 -1.0
194 406 -1.0
194 410 -1.0
194 414 -1.0
194 418 -1.0
194 422 -1.0
194 426 -1.0
194 430 -1.0
194 613 1.0
195 383 -1.0
195 387 -1.0
195 391 -1.0
195 395 -1.0
195 399 -1.0
195 403 -1.0
195 407 -1.0
195 411 -1.0
195 415 -1.0
195 419 -1.0
195 423 -1.0
195 427 -1.0
195 431 -1.0
195 614 1.0
196 433 -1.0
196 435 -1.0
196 437 -1.0
196 439 -1.0
196 441 -1.0
196 443 -1.0
196 445 -1.0
196 447 -1.0
196 449 -1.0
196 451 -1.0
196 453 -1.0
196 455 -1.0
196 457 -1.0
196 615 1.0
197 257 -1.0
197 265 -1.0
197 273 -1.0
197 281 -1.0
197 289 -1.0
197 297 -1.0
197 305 -1.0
197 313 -1.0
197 321 -1.0
197 329 -1.0
197 337 -1.0
197 345 -1.0
197 353 -1.0
197 616 1.0
198 459 -1.0
198 461 -1.0
198 463 -1.0
198 465 -1.0
198 467 -1.0
198 469 -1.0
198 471 -1.0
198 473 -1.0
198 475 -1.0
198 477 -1.0
198 479 -1.0
198 481 -1.0
198 483 -1.0
198 617 1.0
199 50 -1.0
199 58 -1.0
199 66 -1.0
199 74 -1.0
199 82 -1.0
199 90 -1.0
199 98 -1.0
199 106 -1.0
199 114 -1.0
199 122 -1.0
199 130 -1.0
199 138 -1.0
199 146 -1.0
199 618 1.0
200 460 -1.0
200 462 -1.0
200 464 -1.0
200 466 -1.0
200 468 -1.0
200 470 -1.0
200 472 -1.0
200 474 -1.0
200 476 -1.0
200 478 -1.0
200 480 -1.0
200 482 -1.0
200 484 -1.0
200 619 1.0
201 485 -1.0
201 487 -1.0
201 489 -1.0
201 491 -1.0
201 493 -1.0
201 495 -1.0
201 497 -1.0
201 499 -1.0
201 501 -1.0
201 503 -1.0
201 505 -1.0
201 507 -1.0
201 509 -1.0
201 620 1.0
202 384 -1.0
202 388 -1.0
202 392 -1.0
202 396 -1.0
202 400 -1.0
202 404 -1.0
202 408 -1.0
202 412 -1.0
202 416 -1.0
202 420 -1.0
202 424 -1.0
202 428 -1.0
202 432 -1.0
202 621 1.0
203 486 -1.0
203 488 -1.0
203 490 -1.0
203 492 -1.0
203 494 -1.0
203 496 -1.0
203 498 -1.0
203 500 -1.0
203 502 -1.0
203 504 -1.0
203 506 -1.0
203 508 -1.0
203 510 -1.0
203 622 1.0
204 511 -1.0
204 513 -1.0
204 515 -1.0
204 517 -1.0
204 519 -1.0
204 521 -1.0
204 523 -1.0
204 525 -1.0
204 527 -1.0
204 529 -1.0
204 531 -1.0
204 533 -1.0
204 535 -1.0
204 623 1.0
205 258 -1.0
205 266 -1.0
205 274 -1.0
205 282 -1.0
205 290 -1.0
205 298 -1.0
205 306 -1.0
205 314 -1.0
205 322 -1.0
205 330 -1.0
205 338 -1.0
205 346 -1.0
205 354 -1.0
205 624 1.0
206 434 -1.0
206 436 -1.0
206 438 -1.0
206 440 -1.0
206 442 -1.0
206 444 -1.0
206 446 -1.0
206 448 -1.0
206 450 -1.0
206 452 -1.0
206 454 -1.0
206 456 -1.0
206 458 -1.0
206 625 1.0
207 537 -1.0
207 539 -1.0
207 541 -1.0
207 543 -1.0
207 545 -1.0
207 547 -1.0
207 549 -1.0
207 551 -1.0
207 553 -1.0
207 555 -1.0
207 557 -1.0
207 559 -1.0
207 561 -1.0
207 626 1.0
208 538 -1.0
208 540 -1.0
208 542 -1.0
208 544 -1.0
208 546 -1.0
208 548 -1.0
208 550 -1.0
208 552 -1.0
208 554 -1.0
208 556 -1.0
208 558 -1.0
208 560 -1.0
208 562 -1.0
208 627 1.0
209 563 -1.0
209 565 -1.0
209 567 -1.0
209 569 -1.0
209 571 -1.0
209 573 -1.0
209 575 -1.0
209 577 -1.0
209 579 -1.0
209 581 -1.0
209 583 -1.0
209 585 -1.0
209 587 -1.0
209 628 1.0
210 512 -1.0
210 514 -1.0
210 516 -1.0
210 518 -1.0
210 520 -1.0
210 522 -1.0
210 524 -1.0
210 526 -1.0
210 528 -1.0
210 530 -1.0
210 532 -1.0
210 534 -1.0
210 536 -1.0
210 629 1.0
211 564 -1.0
211 566 -1.0
211 568 -1.0
211 570 -1.0
211 572 -1.0
211 574 -1.0
211 576 -1.0
211 578 -1.0
211 580 -1.0
211 582 -1.0
211 584 -1.0
211 586 -1.0
211 588 -1.0
211 630 1.0
212 631 1.0
212 632 1.0
212 633 1.0
212 634 1.0
212 635 1.0
212 636 1.0
212 637 1.0
212 638 1.0
212 639 1.0
212 640 1.0
212 641 1.0
212 642 1.0
212 643 1.0
212 644 1.0
212 645 1.0
212 646 1.0
212 647 1.0
212 648 1.0
212 649 1.0
212 650 1.0
212 651 1.0
212 652 1.0
212 653 1.0
212 654 1.0
212 655 1.0
212 656 1.0
212 657 1.0
212 658 1.0
212 659 1.0
212 660 1.0
212 661 1.0
212 662 1.0
212 663 1.0
212 664 1.0
212 665 1.0
212 666 1.0
212 667 1.0
212 668 1.0
212 669 1.0
212 670 1.0
212 671 1.0
212 672 1.0
213 1 -166.0
213 43 1.0
213 51 1.0
213 59 1.0
213 67 1.0
213 75 1.0
213 83 1.0
213 91 1.0
213 99 1.0
213 107 1.0
213 115 1.0
213 123 1.0
213 131 1.0
213 139 1.0
214 2 -463.0
214 44 1.0
214 52 1.0
214 60 1.0
214 68 1.0
214 76 1.0
214 84 1.0
214 92 1.0
214 100 1.0
214 108 1.0
214 116 1.0
214 124 1.0
214 132 1.0
214 140 1.0
215 3 -522.0
215 45 1.0
215 53 1.0
215 61 1.0
215 69 1.0
215 77 1.0
215 85 1.0
215 93 1.0
215 101 1.0
215 109 1.0
215 117 1.0
215 125 1.0
215 133 1.0
215 141 1.0
216 4 -141.0
216 46 1.0
216 54 1.0
216 62 1.0
216 70 1.0
216 78 1.0
216 86 1.0
216 94 1.0
216 102 1.0
216 110 1.0
216 118 1.0
216 126 1.0
216 134 1.0
216 142 1.0
217 5 -166.0
217 47 1.0
217 55 1.0
217 63 1.0
217 71 1.0
217 79 1.0
217 87 1.0
217 95 1.0
217 103 1.0
217 111 1.0
217 119 1.0
217 127 1.0
217 135 1.0
217 143 1.0
218 6 -265.0
218 147 1.0
218 149 1.0
218 151 1.0
218 153 1.0
218 155 1.0
218 157 1.0
218 159 1.0
218 161 1.0
218 163 1.0
218 165 1.0
218 167 1.0
218 169 1.0
218 171 1.0
219 7 -463.0
219 48 1.0
219 56 1.0
219 64 1.0
219 72 1.0
219 80 1.0
219 88 1.0
219 96 1.0
219 104 1.0
219 112 1.0
219 120 1.0
219 128 1.0
219 136 1.0
219 144 1.0
220 8 -456.0
220 173 1.0
220 179 1.0
220 185 1.0
220 191 1.0
220 197 1.0
220 203 1.0
220 209 1.0
220 215 1.0
220 221 1.0
220 227 1.0
220 233 1.0
220 239 1.0
220 245 1.0
221 9 -526.0
221 174 1.0
221 180 1.0
221 186 1.0
221 192 1.0
221 198 1.0
221 204 1.0
221 210 1.0
221 216 1.0
221 222 1.0
221 228 1.0
221 234 1.0
221 240 1.0
221 246 1.0
222 10 -152.0
222 175 1.0
222 181 1.0
222 187 1.0
222 193 1.0
222 199 1.0
222 205 1.0
222 211 1.0
222 217 1.0
222 223 1.0
222 229 1.0
222 235 1.0
222 241 1.0
222 247 1.0
223 11 -456.0
223 176 1.0
223 182 1.0
223 188 1.0
223 194 1.0
223 200 1.0
223 206 1.0
223 212 1.0
223 218 1.0
223 224 1.0
223 230 1.0
223 236 1.0
223 242 1.0
223 248 1.0
224 12 -384.0
224 251 1.0
224 259 1.0
224 267 1.0
224 275 1.0
224 283 1.0
224 291 1.0
224 299 1.0
224 307 1.0
224 315 1.0
224 323 1.0
224 331 1.0
224 339 1.0
224 347 1.0
225 13 -441.0
225 252 1.0
225 260 1.0
225 268 1.0
225 276 1.0
225 284 1.0
225 292 1.0
225 300 1.0
225 308 1.0
225 316 1.0
225 324 1.0
225 332 1.0
225 340 1.0
225 348 1.0
226 14 -309.0
226 253 1.0
226 261 1.0
226 269 1.0
226 277 1.0
226 285 1.0
226 293 1.0
226 301 1.0
226 309 1.0
226 317 1.0
226 325 1.0
226 333 1.0
226 341 1.0
226 349 1.0
227 15 -233.0
227 254 1.0
227 262 1.0
227 270 1.0
227 278 1.0
227 286 1.0
227 294 1.0
227 302 1.0
227 310 1.0
227 318 1.0
227 326 1.0
227 334 1.0
227 342 1.0
227 350 1.0
228 16 -526.0
228 177 1.0
228 183 1.0
228 189 1.0
228 195 1.0
228 201 1.0
228 207 1.0
228 213 1.0
228 219 1.0
228 225 1.0
228 231 1.0
228 237 1.0
228 243 1.0
228 249 1.0
229 17 -384.0
229 255 1.0
229 263 1.0
229 271 1.0
229 279 1.0
229 287 1.0
229 295 1.0
229 303 1.0
229 311 1.0
229 319 1.0
229 327 1.0
229 335 1.0
229 343 1.0
229 351 1.0
230 18 -203.0
230 355 1.0
230 357 1.0
230 359 1.0
230 361 1.0
230 363 1.0
230 365 1.0
230 367 1.0
230 369 1.0
230 371 1.0
230 373 1.0
230 375 1.0
230 377 1.0
230 379 1.0
231 19 -522.0
231 49 1.0
231 57 1.0
231 65 1.0
231 73 1.0
231 81 1.0
231 89 1.0
231 97 1.0
231 105 1.0
231 113 1.0
231 121 1.0
231 129 1.0
231 137 1.0
231 145 1.0
232 20 -265.0
232 148 1.0
232 150 1.0
232 152 1.0
232 154 1.0
232 156 1.0
232 158 1.0
232 160 1.0
232 162 1.0
232 164 1.0
232 166 1.0
232 168 1.0
232 170 1.0
232 172 1.0
233 21 -152.0
233 178 1.0
233 184 1.0
233 190 1.0
233 196 1.0
233 202 1.0
233 208 1.0
233 214 1.0
233 220 1.0
233 226 1.0
233 232 1.0
233 238 1.0
233 244 1.0
233 250 1.0
234 22 -441.0
234 256 1.0
234 264 1.0
234 272 1.0
234 280 1.0
234 288 1.0
234 296 1.0
234 304 1.0
234 312 1.0
234 320 1.0
234 328 1.0
234 336 1.0
234 344 1.0
234 352 1.0
235 23 -203.0
235 356 1.0
235 358 1.0
235 360 1.0
235 362 1.0
235 364 1.0
235 366 1.0
235 368 1.0
235 370 1.0
235 372 1.0
235 374 1.0
235 376 1.0
235 378 1.0
235 380 1.0
236 24 -284.0
236 381 1.0
236 385 1.0
236 389 1.0
236 393 1.0
236 397 1.0
236 401 1.0
236 405 1.0
236 409 1.0
236 413 1.0
236 417 1.0
236 421 1.0
236 425 1.0
236 429 1.0
237 25 -426.0
237 382 1.0
237 386 1.0
237 390 1.0
237 394 1.0
237 398 1.0
237 402 1.0
237 406 1.0
237 410 1.0
237 414 1.0
237 418 1.0
237 422 1.0
237 426 1.0
237 430 1.0
238 26 -284.0
238 383 1.0
238 387 1.0
238 391 1.0
238 395 1.0
238 399 1.0
238 403 1.0
238 407 1.0
238 411 1.0
238 415 1.0
238 419 1.0
238 423 1.0
238 427 1.0
238 431 1.0
239 27 -109.0
239 433 1.0
239 435 1.0
239 437 1.0
239 439 1.0
239 441 1.0
239 443 1.0
239 445 1.0
239 447 1.0
239 449 1.0
239 451 1.0
239 453 1.0
239 455 1.0
239 457 1.0
240 28 -309.0
240 257 1.0
240 265 1.0
240 273 1.0
240 281 1.0
240 289 1.0
240 297 1.0
240 305 1.0
240 313 1.0
240 321 1.0
240 329 1.0
240 337 1.0
240 345 1.0
240 353 1.0
241 29 -434.0
241 459 1.0
241 461 1.0
241 463 1.0
241 465 1.0
241 467 1.0
241 469 1.0
241 471 1.0
241 473 1.0
241 475 1.0
241 477 1.0
241 479 1.0
241 481 1.0
241 483 1.0
242 30 -141.0
242 50 1.0
242 58 1.0
242 66 1.0
242 74 1.0
242 82 1.0
242 90 1.0
242 98 1.0
242 106 1.0
242 114 1.0
242 122 1.0
242 130 1.0
242 138 1.0
242 146 1.0
243 31 -434.0
243 460 1.0
243 462 1.0
243 464 1.0
243 466 1.0
243 468 1.0
243 470 1.0
243 472 1.0
243 474 1.0
243 476 1.0
243 478 1.0
243 480 1.0
243 482 1.0
243 484 1.0
244 32 -403.0
244 485 1.0
244 487 1.0
244 489 1.0
244 491 1.0
244 493 1.0
244 495 1.0
244 497 1.0
244 499 1.0
244 501 1.0
244 503 1.0
244 505 1.0
244 507 1.0
244 509 1.0
245 33 -426.0
245 384 1.0
245 388 1.0
245 392 1.0
245 396 1.0
245 400 1.0
245 404 1.0
245 408 1.0
245 412 1.0
245 416 1.0
245 420 1.0
245 424 1.0
245 428 1.0
245 432 1.0
246 34 -403.0
246 486 1.0
246 488 1.0
246 490 1.0
246 492 1.0
246 494 1.0
246 496 1.0
246 498 1.0
246 500 1.0
246 502 1.0
246 504 1.0
246 506 1.0
246 508 1.0
246 510 1.0
247 35 -151.0
247 511 1.0
247 513 1.0
247 515 1.0
247 517 1.0
247 519 1.0
247 521 1.0
247 523 1.0
247 525 1.0
247 527 1.0
247 529 1.0
247 531 1.0
247 533 1.0
247 535 1.0
248 36 -233.0
248 258 1.0
248 266 1.0
248 274 1.0
248 282 1.0
248 290 1.0
248 298 1.0
248 306 1.0
248 314 1.0
248 322 1.0
248 330 1.0
248 338 1.0
248 346 1.0
248 354 1.0
249 37 -109.0
249 434 1.0
249 436 1.0
249 438 1.0
249 440 1.0
249 442 1.0
249 444 1.0
249 446 1.0
249 448 1.0
249 450 1.0
249 452 1.0
249 454 1.0
249 456 1.0
249 458 1.0
250 38 -367.0
250 537 1.0
250 539 1.0
250 541 1.0
250 543 1.0
250 545 1.0
250 547 1.0
250 549 1.0
250 551 1.0
250 553 1.0
250 555 1.0
250 557 1.0
250 559 1.0
250 561 1.0
251 39 -367.0
251 538 1.0
251 540 1.0
251 542 1.0
251 544 1.0
251 546 1.0
251 548 1.0
251 550 1.0
251 552 1.0
251 554 1.0
251 556 1.0
251 558 1.0
251 560 1.0
251 562 1.0
252 40 -382.0
252 563 1.0
252 565 1.0
252 567 1.0
252 569 1.0
252 571 1.0
252 573 1.0
252 575 1.0
252 577 1.0
252 579 1.0
252 581 1.0
252 583 1.0
252 585 1.0
252 587 1.0
253 41 -151.0
253 512 1.0
253 514 1.0
253 516 1.0
253 518 1.0
253 520 1.0
253 522 1.0
253 524 1.0
253 526 1.0
253 528 1.0
253 530 1.0
253 532 1.0
253 534 1.0
253 536 1.0
254 42 -382.0
254 564 1.0
254 566 1.0
254 568 1.0
254 570 1.0
254 572 1.0
254 574 1.0
254 576 1.0
254 578 1.0
254 580 1.0
254 582 1.0
254 584 1.0
254 586 1.0
254 588 1.0
1.79769313486232E+308 # value for infinity
-1.79769313486232E+308 # default left-hand-side value
211 # number of non-default left-hand-sides
1 -148.0
2 12.0
3 16.0
4 21.0
5 11.0
6 24.0
7 24.0
8 8.0
9 10.0
10 18.0
11 11.0
12 20.0
13 7.0
14 7.0
15 -175.0
16 15.0
17 17.0
18 20.0
19 24.0
20 6.0
21 19.0
22 24.0
23 11.0
24 15.0
25 9.0
26 19.0
27 15.0
28 13.0
29 -231.0
30 23.0
31 18.0
32 19.0
33 9.0
34 8.0
35 16.0
36 19.0
37 19.0
38 21.0
39 8.0
40 12.0
41 20.0
42 23.0
43 -187.0
44 21.0
45 12.0
46 6.0
47 11.0
48 19.0
49 9.0
50 17.0
51 23.0
52 21.0
53 14.0
54 7.0
55 22.0
56 14.0
57 -170.0
58 12.0
59 13.0
60 10.0
61 15.0
62 9.0
63 14.0
64 16.0
65 8.0
66 13.0
67 22.0
68 23.0
69 7.0
70 16.0
71 -169.0
72 20.0
73 14.0
74 11.0
75 13.0
76 10.0
77 13.0
78 12.0
79 6.0
80 16.0
81 22.0
82 9.0
83 13.0
84 7.0
85 -156.0
86 20.0
87 19.0
88 24.0
89 8.0
90 21.0
91 6.0
92 15.0
93 15.0
94 23.0
95 25.0
96 20.0
97 7.0
98 19.0
99 -177.0
100 7.0
101 18.0
102 25.0
103 20.0
104 18.0
105 8.0
106 11.0
107 23.0
108 7.0
109 5.0
110 15.0
111 7.0
112 10.0
113 -179.0
114 20.0
115 18.0
116 8.0
117 12.0
118 9.0
119 12.0
120 24.0
121 21.0
122 8.0
123 9.0
124 11.0
125 13.0
126 11.0
127 -183.0
128 16.0
129 14.0
130 17.0
131 22.0
132 12.0
133 7.0
134 12.0
135 12.0
136 10.0
137 11.0
138 17.0
139 17.0
140 12.0
141 -185.0
142 10.0
143 21.0
144 8.0
145 20.0
146 23.0
147 18.0
148 15.0
149 22.0
150 17.0
151 24.0
152 7.0
153 16.0
154 24.0
155 -200.0
156 8.0
157 19.0
158 15.0
159 10.0
160 13.0
161 11.0
162 8.0
163 13.0
164 23.0
165 23.0
166 14.0
167 8.0
168 25.0
169 -157.0
170 0.0
171 0.0
172 0.0
173 0.0
174 0.0
175 0.0
176 0.0
177 0.0
178 0.0
179 0.0
180 0.0
181 0.0
182 0.0
183 0.0
184 0.0
185 0.0
186 0.0
187 0.0
188 0.0
189 0.0
190 0.0
191 0.0
192 0.0
193 0.0
194 0.0
195 0.0
196 0.0
197 0.0
198 0.0
199 0.0
200 0.0
201 0.0
202 0.0
203 0.0
204 0.0
205 0.0
206 0.0
207 0.0
208 0.0
209 0.0
210 0.0
211 0.0
0.0 # default right-hand-side value
212 # number of non-default right-hand-sides
1 -148.0
2 12.0
3 16.0
4 21.0
5 11.0
6 24.0
7 24.0
8 8.0
9 10.0
10 18.0
11 11.0
12 20.0
13 7.0
14 7.0
15 -175.0
16 15.0
17 17.0
18 20.0
19 24.0
20 6.0
21 19.0
22 24.0
23 11.0
24 15.0
25 9.0
26 19.0
27 15.0
28 13.0
29 -231.0
30 23.0
31 18.0
32 19.0
33 9.0
34 8.0
35 16.0
36 19.0
37 19.0
38 21.0
39 8.0
40 12.0
41 20.0
42 23.0
43 -187.0
44 21.0
45 12.0
46 6.0
47 11.0
48 19.0
49 9.0
50 17.0
51 23.0
52 21.0
53 14.0
54 7.0
55 22.0
56 14.0
57 -170.0
58 12.0
59 13.0
60 10.0
61 15.0
62 9.0
63 14.0
64 16.0
65 8.0
66 13.0
67 22.0
68 23.0
69 7.0
70 16.0
71 -169.0
72 20.0
73 14.0
74 11.0
75 13.0
76 10.0
77 13.0
78 12.0
79 6.0
80 16.0
81 22.0
82 9.0
83 13.0
84 7.0
85 -156.0
86 20.0
87 19.0
88 24.0
89 8.0
90 21.0
91 6.0
92 15.0
93 15.0
94 23.0
95 25.0
96 20.0
97 7.0
98 19.0
99 -177.0
100 7.0
101 18.0
102 25.0
103 20.0
104 18.0
105 8.0
106 11.0
107 23.0
108 7.0
109 5.0
110 15.0
111 7.0
112 10.0
113 -179.0
114 20.0
115 18.0
116 8.0
117 12.0
118 9.0
119 12.0
120 24.0
121 21.0
122 8.0
123 9.0
124 11.0
125 13.0
126 11.0
127 -183.0
128 16.0
129 14.0
130 17.0
131 22.0
132 12.0
133 7.0
134 12.0
135 12.0
136 10.0
137 11.0
138 17.0
139 17.0
140 12.0
141 -185.0
142 10.0
143 21.0
144 8.0
145 20.0
146 23.0
147 18.0
148 15.0
149 22.0
150 17.0
151 24.0
152 7.0
153 16.0
154 24.0
155 -200.0
156 8.0
157 19.0
158 15.0
159 10.0
160 13.0
161 11.0
162 8.0
163 13.0
164 23.0
165 23.0
166 14.0
167 8.0
168 25.0
169 -157.0
170 1.79769313486232E+308
171 1.79769313486232E+308
172 1.79769313486232E+308
173 1.79769313486232E+308
174 1.79769313486232E+308
175 1.79769313486232E+308
176 1.79769313486232E+308
177 1.79769313486232E+308
178 1.79769313486232E+308
179 1.79769313486232E+308
180 1.79769313486232E+308
181 1.79769313486232E+308
182 1.79769313486232E+308
183 1.79769313486232E+308
184 1.79769313486232E+308
185 1.79769313486232E+308
186 1.79769313486232E+308
187 1.79769313486232E+308
188 1.79769313486232E+308
189 1.79769313486232E+308
190 1.79769313486232E+308
191 1.79769313486232E+308
192 1.79769313486232E+308
193 1.79769313486232E+308
194 1.79769313486232E+308
195 1.79769313486232E+308
196 1.79769313486232E+308
197 1.79769313486232E+308
198 1.79769313486232E+308
199 1.79769313486232E+308
200 1.79769313486232E+308
201 1.79769313486232E+308
202 1.79769313486232E+308
203 1.79769313486232E+308
204 1.79769313486232E+308
205 1.79769313486232E+308
206 1.79769313486232E+308
207 1.79769313486232E+308
208 1.79769313486232E+308
209 1.79769313486232E+308
210 1.79769313486232E+308
211 1.79769313486232E+308
212 18536.0
0.0 # default variable lower bound value
0 # number of non-default variable lower bounds
1.79769313486232E+308 # default variable upper bound value
42 # number of non-default variable upper bounds
1 1.0
2 1.0
3 1.0
4 1.0
5 1.0
6 1.0
7 1.0
8 1.0
9 1.0
10 1.0
11 1.0
12 1.0
13 1.0
14 1.0
15 1.0
16 1.0
17 1.0
18 1.0
19 1.0
20 1.0
21 1.0
22 1.0
23 1.0
24 1.0
25 1.0
26 1.0
27 1.0
28 1.0
29 1.0
30 1.0
31 1.0
32 1.0
33 1.0
34 1.0
35 1.0
36 1.0
37 1.0
38 1.0
39 1.0
40 1.0
41 1.0
42 1.0
0 # default variable type
42 # number of non-default variable types
1 1
2 1
3 1
4 1
5 1
6 1
7 1
8 1
9 1
10 1
11 1
12 1
13 1
14 1
15 1
16 1
17 1
18 1
19 1
20 1
21 1
22 1
23 1
24 1
25 1
26 1
27 1
28 1
29 1
30 1
31 1
32 1
33 1
34 1
35 1
36 1
37 1
38 1
39 1
40 1
41 1
42 1
0.0 # default variable primal value in starting point
0 # number of non-default variable primal values in starting point
0.0 # default constraint dual value in starting point
0 # number of non-default constraint dual values in starting point
0.0 # default variable bound dual value in starting point
0 # number of non-default variable bound dual values in starting point
0 # number of non-default variable names
0 # number of non-default constraint names
